\ Model x132_copy
\ LP format - for model browsing. Use MPS format to capture full model detail.
Minimize
 
Subject To
 c_e_x158_: x21 - x26 + x31 + x36 - x41 + x46 = 0
Bounds
 x21 >= 3.632765895e+08
 -infinity <= x26 <= 28623.71111111111
 x36 >= 34037.97222222222
 -infinity <= x41 <= 42978.52777777777
End
